s td 54 7 60
b 1 1 2 11
b 2 9 10 20
b 3 41 51 52
b 4 50 59 60
b 5 2 3 11 12
b 6 8 9 19 20
b 7 3 4 14 25 36 47 56
b 8 4 5 14 25 36 47 56
b 9 5 14 16 25 36 47 56
b 10 5 7 16 25 36 47 56
b 11 5 6 7 16
b 12 7 16 25 27 36 47 56
b 13 7 16 27 36 38 47 56
b 14 7 16 18 27 38 47 56
b 15 7 18 27 29 38 47 56
b 16 7 18 20 29 38 47 56
b 17 7 18 19 20 29
b 18 7 8 18 19 20
b 19 20 29 38 47 56 58
b 20 20 29 38 40 47 58
b 21 20 29 30 40
b 22 29 38 40 47 49 58
b 23 29 38 39 40 49
b 24 38 47 48 49 58
b 25 40 49 58 59
b 26 47 56 57 58
b 27 18 27 28 29 38
b 28 7 16 17 18 27
b 29 27 36 37 38 47
b 30 16 25 26 27 36
b 31 5 14 15 16 25
b 32 3 14 25 36 45 47 56
b 33 3 14 25 36 45 54 56
b 34 3 14 25 34 36 45 54
b 35 3 14 25 34 43 45 54
b 36 3 14 23 25 34 43 54
b 37 3 14 23 32 34 43 54
b 38 3 14 21 23 32 43 54
b 39 3 12 14 21 23 32
b 40 3 11 12 21
b 41 3 12 13 14 23
b 42 12 21 22 23 32
b 43 21 32 43 52 54
b 44 21 32 42 43 52
b 45 21 31 32 42 52
b 46 43 52 53 54
b 47 23 32 33 34 43
b 48 14 23 24 25 34
b 49 34 43 44 45 54
b 50 25 34 35 36 45
b 51 45 54 55 56
b 52 36 45 46 47 56
b 53 31 41 42 52
b 54 40 49 50 59
1 5
2 6
3 53
4 54
5 40
6 18
7 8
7 32
8 9
9 10
9 31
10 11
10 12
12 13
12 30
13 14
13 29
14 15
14 28
15 16
15 27
16 17
16 19
17 18
19 20
19 26
20 21
20 22
22 23
22 24
22 25
25 54
32 33
32 52
33 34
33 51
34 35
34 50
35 36
35 49
36 37
36 48
37 38
37 47
38 39
38 43
39 40
39 41
39 42
43 44
43 46
44 45
45 53
